tsp_instances/TSP20/instance41.tsp
NODE_COORD_SECTION
0 170 88
1 137 179
2 142 180
3 153 68
4 155 171
5 122 100
6 15 157
7 170 160
8 91 186
9 5 4
10 136 21
11 12 113
12 106 144
13 57 119
14 64 177
15 11 189
16 191 131
17 18 134
18 34 74
19 33 143
