tsp_instances/TSP20/instance41.opt.tour
TOUR_SECTION
1
6
4
11
10
19
14
12
18
20
7
16
15
9
13
2
3
5
8
17
-1